# Generated by ConicBenchmarkUtilities.jl
VER
2

OBJSENSE
MIN

VAR
239 1
F 239

INT
80
28
29
30
31
32
33
34
35
36
37
38
39
40
41
42
43
44
45
46
47
48
49
50
51
52
53
54
55
56
57
58
59
60
61
62
63
64
65
66
67
126
128
130
132
133
134
137
140
141
142
145
148
151
154
156
158
159
160
161
162
164
166
167
168
170
172
174
176
178
180
183
184
185
186
188
190
192
194
196
198

CON
749 693
L= 1
L= 1
L= 1
L= 1
L= 1
L= 1
L= 1
L= 1
L= 1
L= 1
L= 1
L= 1
L= 1
L= 1
L= 1
L= 1
L= 1
L= 1
L= 1
L= 1
L= 1
EXP 3
L+ 1
EXP 3
L+ 1
L+ 1
L+ 1
L+ 1
L+ 1
EXP 3
L+ 1
EXP 3
L+ 1
L+ 1
L+ 1
L+ 1
L+ 1
L+ 1
L+ 1
L+ 1
L+ 1
L+ 1
L+ 1
L+ 1
L+ 1
EXP 3
L+ 1
EXP 3
L+ 1
L+ 1
L+ 1
L+ 1
L+ 1
L+ 1
L+ 1
L+ 1
L+ 1
L+ 1
L+ 1
L+ 1
L+ 1
L+ 1
L+ 1
L+ 1
L+ 1
L+ 1
L+ 1
EXP 3
L+ 1
EXP 3
L+ 1
L+ 1
L+ 1
L+ 1
L+ 1
EXP 3
L+ 1
EXP 3
L+ 1
L+ 1
L+ 1
L+ 1
L+ 1
EXP 3
L+ 1
EXP 3
L+ 1
L+ 1
L+ 1
L+ 1
L+ 1
L+ 1
L+ 1
L+ 1
L+ 1
L+ 1
L+ 1
L+ 1
L+ 1
L+ 1
L+ 1
L+ 1
L+ 1
L+ 1
L+ 1
L+ 1
L+ 1
EXP 3
L+ 1
EXP 3
L+ 1
L+ 1
L+ 1
L+ 1
L+ 1
L+ 1
L+ 1
L+ 1
L+ 1
L+ 1
L+ 1
L+ 1
L+ 1
L+ 1
L+ 1
L+ 1
L+ 1
L+ 1
L+ 1
EXP 3
L+ 1
EXP 3
L+ 1
L+ 1
L+ 1
L+ 1
L+ 1
EXP 3
L+ 1
EXP 3
L+ 1
L+ 1
L+ 1
L+ 1
L+ 1
EXP 3
L+ 1
EXP 3
L+ 1
EXP 3
L+ 1
EXP 3
L+ 1
L+ 1
L+ 1
L+ 1
L+ 1
L+ 1
L+ 1
L+ 1
L+ 1
L+ 1
L+ 1
L+ 1
L+ 1
L+ 1
L+ 1
L+ 1
L+ 1
L+ 1
L+ 1
L+ 1
L+ 1
L+ 1
L+ 1
EXP 3
L+ 1
EXP 3
L+ 1
L+ 1
L+ 1
L+ 1
L+ 1
EXP 3
L+ 1
EXP 3
L+ 1
L+ 1
L+ 1
L+ 1
L+ 1
EXP 3
L+ 1
EXP 3
L+ 1
L+ 1
L+ 1
L+ 1
L+ 1
L+ 1
L+ 1
L+ 1
L+ 1
L+ 1
L+ 1
L+ 1
L+ 1
L+ 1
L+ 1
L+ 1
L+ 1
L+ 1
L+ 1
L+ 1
L+ 1
L+ 1
L+ 1
L+ 1
L+ 1
L+ 1
L+ 1
L+ 1
L+ 1
L+ 1
L+ 1
L+ 1
L+ 1
L+ 1
L+ 1
L+ 1
L+ 1
L+ 1
L+ 1
L+ 1
L+ 1
L+ 1
L+ 1
L+ 1
L+ 1
L+ 1
L+ 1
L+ 1
L+ 1
L+ 1
L+ 1
L+ 1
L+ 1
L+ 1
L+ 1
L+ 1
L+ 1
L+ 1
L+ 1
L+ 1
L+ 1
L+ 1
L+ 1
L+ 1
L+ 1
L+ 1
L+ 1
L+ 1
L+ 1
L+ 1
L+ 1
L+ 1
L+ 1
L+ 1
L+ 1
L+ 1
L+ 1
L+ 1
L+ 1
L+ 1
L+ 1
L+ 1
L+ 1
L+ 1
L+ 1
L+ 1
L+ 1
L+ 1
L+ 1
L+ 1
L+ 1
L+ 1
L+ 1
L+ 1
L+ 1
L+ 1
L+ 1
L+ 1
L+ 1
L+ 1
L+ 1
L+ 1
L+ 1
L+ 1
L+ 1
L+ 1
L+ 1
L+ 1
L+ 1
L+ 1
L+ 1
L+ 1
L+ 1
L+ 1
L+ 1
L+ 1
L+ 1
L+ 1
L+ 1
L+ 1
L+ 1
L+ 1
L+ 1
L+ 1
L+ 1
L+ 1
L+ 1
L+ 1
L+ 1
L+ 1
L+ 1
L+ 1
L+ 1
L+ 1
L+ 1
L+ 1
L+ 1
L+ 1
L+ 1
L+ 1
L+ 1
L+ 1
L+ 1
L+ 1
L+ 1
L+ 1
L+ 1
L+ 1
L+ 1
L+ 1
L+ 1
L+ 1
L+ 1
L+ 1
L+ 1
L+ 1
L+ 1
L+ 1
L+ 1
L+ 1
L+ 1
L+ 1
L+ 1
L+ 1
L+ 1
L+ 1
L+ 1
L+ 1
L+ 1
L+ 1
L+ 1
L+ 1
L+ 1
L+ 1
L+ 1
L+ 1
L+ 1
L+ 1
L+ 1
L+ 1
L+ 1
L+ 1
L+ 1
L+ 1
L+ 1
L= 1
L= 1
L+ 1
L+ 1
L+ 1
L+ 1
L+ 1
L+ 1
L+ 1
L+ 1
L+ 1
L+ 1
L+ 1
L+ 1
L+ 1
L+ 1
L+ 1
L+ 1
L+ 1
L+ 1
L+ 1
L+ 1
L+ 1
L+ 1
L+ 1
L+ 1
L+ 1
L+ 1
L+ 1
L+ 1
L+ 1
L+ 1
L+ 1
L+ 1
L+ 1
L+ 1
L+ 1
L+ 1
L+ 1
L+ 1
L+ 1
L+ 1
L+ 1
L+ 1
L+ 1
L+ 1
L+ 1
L+ 1
L+ 1
L+ 1
L+ 1
L+ 1
L+ 1
L+ 1
L+ 1
L+ 1
L+ 1
L+ 1
L+ 1
L+ 1
L+ 1
L+ 1
L+ 1
L+ 1
L+ 1
L+ 1
L+ 1
L+ 1
L+ 1
L+ 1
L+ 1
L+ 1
L+ 1
L+ 1
L+ 1
L+ 1
L+ 1
L+ 1
L+ 1
L+ 1
L+ 1
L+ 1
L+ 1
L+ 1
L+ 1
L+ 1
L+ 1
L+ 1
L+ 1
L+ 1
L+ 1
L+ 1
L+ 1
L+ 1
L+ 1
L+ 1
L+ 1
L+ 1
L+ 1
L+ 1
L+ 1
L+ 1
L+ 1
L+ 1
L+ 1
L+ 1
L+ 1
L+ 1
L+ 1
L+ 1
L+ 1
L+ 1
L+ 1
L+ 1
L+ 1
L+ 1
L+ 1
L+ 1
L+ 1
L+ 1
L+ 1
L+ 1
L+ 1
L+ 1
L+ 1
L+ 1
L+ 1
L+ 1
L+ 1
L+ 1
L+ 1
L+ 1
L+ 1
L+ 1
L+ 1
L+ 1
L+ 1
L+ 1
L+ 1
L+ 1
L+ 1
L+ 1
L+ 1
L+ 1
L+ 1
L+ 1
L+ 1
L+ 1
L+ 1
L+ 1
L+ 1
L+ 1
L+ 1
L+ 1
L+ 1
L+ 1
L+ 1
L+ 1
L+ 1
L+ 1
L+ 1
L+ 1
L+ 1
L+ 1
L+ 1
L+ 1
L+ 1
L+ 1
L+ 1
L+ 1
L+ 1
L+ 1
L+ 1
L+ 1
L+ 1
L+ 1
L+ 1
L+ 1
L+ 1
L+ 1
L+ 1
L+ 1
L+ 1
L+ 1
L+ 1
L+ 1
L+ 1
L+ 1
L+ 1
L+ 1
L+ 1
L+ 1
L+ 1
L+ 1
L+ 1
L+ 1
L+ 1
L+ 1
L+ 1
L+ 1
L+ 1
L+ 1
L+ 1
L+ 1
L+ 1
L+ 1
L+ 1
L+ 1
L+ 1
L+ 1
L+ 1
L+ 1
L+ 1
L+ 1
L+ 1
L+ 1
L+ 1
L+ 1
L+ 1
L+ 1
L+ 1
L+ 1
L+ 1
L+ 1
L+ 1
L+ 1
L+ 1
L+ 1
L+ 1
L+ 1
L+ 1
L+ 1
L+ 1
L+ 1
L+ 1
L+ 1
L+ 1
L+ 1
L+ 1
L+ 1
L+ 1
L+ 1
L+ 1
L+ 1
L+ 1
L+ 1
L+ 1
L+ 1
L+ 1
L+ 1
L+ 1
L+ 1
L+ 1
L+ 1
L+ 1
L+ 1
L+ 1
L+ 1
L+ 1
L+ 1
L+ 1
L+ 1
L+ 1
L+ 1
L+ 1
L+ 1
L+ 1
L+ 1
L+ 1
L+ 1
L+ 1
L+ 1
L+ 1
L+ 1
L+ 1
L+ 1
L+ 1
L+ 1
L+ 1
L+ 1
L+ 1
L+ 1
L+ 1
L+ 1
L+ 1
L+ 1
L+ 1
L+ 1
L+ 1
L+ 1
L+ 1
L+ 1
L+ 1
L+ 1
L+ 1
L+ 1
L+ 1
L+ 1
L+ 1
L+ 1
L+ 1
L+ 1
L+ 1
L+ 1
L+ 1
L+ 1
L+ 1
L+ 1
L+ 1
L+ 1
L+ 1
L+ 1
L+ 1
L+ 1

OBJACOORD
1
68 -1.0

ACOORD
1325
0 0 -1.0
1 0 1.0
491 0 1.0
492 0 -1.0
0 1 -1.0
2 1 1.0
493 1 1.0
494 1 -1.0
0 2 5.0
5 2 -1.0
505 2 1.0
0 3 10.0
6 3 -1.0
506 3 1.0
0 4 -2.0
69 4 0.5
71 4 -0.5
75 4 -1.0
515 4 1.0
516 4 -1.0
0 5 -1.0
70 5 0.5
72 5 -0.5
76 5 -1.0
517 5 1.0
518 5 -1.0
0 6 -10.0
147 6 1.0
149 6 -1.0
153 6 -1.0
551 6 1.0
552 6 -1.0
0 7 -5.0
148 7 1.0
150 7 -1.0
154 7 -1.0
553 7 1.0
554 7 -1.0
0 8 -5.0
15 8 -1.0
555 8 1.0
556 8 -1.0
0 9 -5.0
16 9 -1.0
557 9 1.0
558 9 -1.0
0 10 80.0
143 10 -1.0
145 10 1.0
147 10 -1.0
149 10 1.0
155 10 -1.0
571 10 1.0
0 11 130.0
144 11 -1.0
146 11 1.0
148 11 -1.0
150 11 1.0
156 11 -1.0
572 11 1.0
0 12 110.0
160 12 -1.0
167 12 -1.0
573 12 1.0
0 13 120.0
164 13 -1.0
168 13 -1.0
574 13 1.0
0 14 110.0
172 14 -1.0
179 14 -1.0
575 14 1.0
0 15 130.0
176 15 -1.0
180 15 -1.0
576 15 1.0
0 16 80.0
184 16 -1.0
192 16 -1.0
201 16 -1.0
577 16 1.0
0 17 90.0
188 17 -1.0
196 17 -1.0
202 17 -1.0
578 17 1.0
0 18 285.0
203 18 -1.0
205 18 1.0
209 18 -1.0
579 18 1.0
0 19 390.0
204 19 -1.0
206 19 1.0
210 19 -1.0
580 19 1.0
0 20 290.0
211 20 -1.0
213 20 1.0
217 20 -1.0
581 20 1.0
0 21 405.0
212 21 -1.0
214 21 1.0
218 21 -1.0
582 21 1.0
0 22 280.0
222 22 -1.0
229 22 -1.0
583 22 1.0
0 23 400.0
226 23 -1.0
230 23 -1.0
584 23 1.0
0 24 290.0
234 24 -1.0
241 24 -1.0
585 24 1.0
0 25 300.0
238 25 -1.0
242 25 -1.0
586 25 1.0
0 26 350.0
246 26 -1.0
253 26 -1.0
587 26 1.0
0 27 250.0
250 27 -1.0
254 27 -1.0
588 27 1.0
0 28 -5.0
255 28 -5.0
295 28 5.0
355 28 -1.0
356 28 -1.0
395 28 1.0
669 28 1.0
670 28 -1.0
0 29 -4.0
256 29 -4.0
296 29 4.0
355 29 -1.0
356 29 -1.0
396 29 1.0
671 29 1.0
672 29 -1.0
0 30 -8.0
257 30 -8.0
297 30 8.0
357 30 -1.0
358 30 -1.0
397 30 1.0
673 30 1.0
674 30 -1.0
0 31 -7.0
258 31 -7.0
298 31 7.0
357 31 -1.0
358 31 -1.0
398 31 1.0
675 31 1.0
676 31 -1.0
0 32 -6.0
259 32 -6.0
299 32 6.0
359 32 -1.0
360 32 -1.0
399 32 1.0
677 32 1.0
678 32 -1.0
0 33 -9.0
260 33 -9.0
300 33 9.0
359 33 -1.0
360 33 -1.0
400 33 1.0
679 33 1.0
680 33 -1.0
0 34 -10.0
261 34 -10.0
301 34 10.0
361 34 -1.0
362 34 -1.0
401 34 1.0
681 34 1.0
682 34 -1.0
0 35 -9.0
262 35 -9.0
302 35 9.0
361 35 -1.0
362 35 -1.0
402 35 1.0
683 35 1.0
684 35 -1.0
0 36 -6.0
263 36 -6.0
303 36 6.0
363 36 -1.0
364 36 -1.0
403 36 1.0
685 36 1.0
686 36 -1.0
0 37 -10.0
264 37 -10.0
304 37 10.0
363 37 -1.0
364 37 -1.0
404 37 1.0
687 37 1.0
688 37 -1.0
0 38 -7.0
265 38 -7.0
305 38 7.0
365 38 -1.0
366 38 -1.0
405 38 1.0
689 38 1.0
690 38 -1.0
0 39 -7.0
266 39 -7.0
306 39 7.0
365 39 -1.0
366 39 -1.0
406 39 1.0
691 39 1.0
692 39 -1.0
0 40 -4.0
267 40 -4.0
307 40 4.0
367 40 -1.0
368 40 -1.0
407 40 1.0
693 40 1.0
694 40 -1.0
0 41 -3.0
268 41 -3.0
308 41 3.0
367 41 -1.0
368 41 -1.0
408 41 1.0
695 41 1.0
696 41 -1.0
0 42 -5.0
269 42 -5.0
309 42 5.0
369 42 -1.0
370 42 -1.0
409 42 1.0
697 42 1.0
698 42 -1.0
0 43 -6.0
270 43 -6.0
310 43 6.0
369 43 -1.0
370 43 -1.0
410 43 1.0
699 43 1.0
700 43 -1.0
0 44 -2.0
271 44 -2.0
311 44 2.0
371 44 -1.0
372 44 -1.0
411 44 1.0
701 44 1.0
702 44 -1.0
0 45 -5.0
272 45 -5.0
312 45 5.0
371 45 -1.0
372 45 -1.0
412 45 1.0
703 45 1.0
704 45 -1.0
0 46 -4.0
273 46 -4.0
313 46 4.0
373 46 -1.0
374 46 -1.0
413 46 1.0
705 46 1.0
706 46 -1.0
0 47 -7.0
274 47 -7.0
314 47 7.0
373 47 -1.0
374 47 -1.0
414 47 1.0
707 47 1.0
708 47 -1.0
0 48 -3.0
275 48 -3.0
315 48 3.0
375 48 -1.0
376 48 -1.0
415 48 1.0
709 48 1.0
710 48 -1.0
0 49 -9.0
276 49 -9.0
316 49 9.0
375 49 -1.0
376 49 -1.0
416 49 1.0
711 49 1.0
712 49 -1.0
0 50 -7.0
277 50 -7.0
317 50 7.0
377 50 -1.0
378 50 -1.0
417 50 1.0
713 50 1.0
714 50 -1.0
0 51 -2.0
278 51 -2.0
318 51 2.0
377 51 -1.0
378 51 -1.0
418 51 1.0
715 51 1.0
716 51 -1.0
0 52 -3.0
279 52 -3.0
319 52 3.0
379 52 -1.0
380 52 -1.0
419 52 1.0
717 52 1.0
718 52 -1.0
0 53 -1.0
280 53 -1.0
320 53 1.0
379 53 -1.0
380 53 -1.0
420 53 1.0
719 53 1.0
720 53 -1.0
0 54 -2.0
281 54 -2.0
321 54 2.0
381 54 -1.0
382 54 -1.0
421 54 1.0
721 54 1.0
722 54 -1.0
0 55 -6.0
282 55 -6.0
322 55 6.0
381 55 -1.0
382 55 -1.0
422 55 1.0
723 55 1.0
724 55 -1.0
0 56 -4.0
283 56 -4.0
323 56 4.0
383 56 -1.0
384 56 -1.0
423 56 1.0
725 56 1.0
726 56 -1.0
0 57 -8.0
284 57 -8.0
324 57 8.0
383 57 -1.0
384 57 -1.0
424 57 1.0
727 57 1.0
728 57 -1.0
0 58 -2.0
285 58 -2.0
325 58 2.0
385 58 -1.0
386 58 -1.0
425 58 1.0
729 58 1.0
730 58 -1.0
0 59 -5.0
286 59 -5.0
326 59 5.0
385 59 -1.0
386 59 -1.0
426 59 1.0
731 59 1.0
732 59 -1.0
0 60 -3.0
287 60 -3.0
327 60 3.0
387 60 -1.0
388 60 -1.0
427 60 1.0
733 60 1.0
734 60 -1.0
0 61 -4.0
288 61 -4.0
328 61 4.0
387 61 -1.0
388 61 -1.0
428 61 1.0
735 61 1.0
736 61 -1.0
0 62 -5.0
289 62 -5.0
329 62 5.0
389 62 -1.0
390 62 -1.0
429 62 1.0
737 62 1.0
738 62 -1.0
0 63 -7.0
290 63 -7.0
330 63 7.0
389 63 -1.0
390 63 -1.0
430 63 1.0
739 63 1.0
740 63 -1.0
0 64 -2.0
291 64 -2.0
331 64 2.0
391 64 -1.0
392 64 -1.0
431 64 1.0
741 64 1.0
742 64 -1.0
0 65 -8.0
292 65 -8.0
332 65 8.0
391 65 -1.0
392 65 -1.0
432 65 1.0
743 65 1.0
744 65 -1.0
0 66 -1.0
293 66 -1.0
333 66 1.0
393 66 -1.0
394 66 -1.0
433 66 1.0
745 66 1.0
746 66 -1.0
0 67 -4.0
294 67 -4.0
334 67 4.0
393 67 -1.0
394 67 -1.0
434 67 1.0
747 67 1.0
748 67 -1.0
0 68 -1.0
1 69 -1.0
21 69 1.0
29 69 -1.0
495 69 1.0
1 70 -1.0
33 70 1.0
41 70 -1.0
497 70 1.0
2 71 -1.0
25 71 1.0
30 71 -1.0
496 71 1.0
2 72 -1.0
37 72 1.0
42 72 -1.0
498 72 1.0
3 73 -1.0
24 73 -1.0
31 73 -1.0
499 73 1.0
3 74 -1.0
36 74 -1.0
43 74 -1.0
501 74 1.0
3 75 1.0
5 75 1.0
503 75 1.0
4 76 -1.0
28 76 -1.0
32 76 -1.0
500 76 1.0
4 77 -1.0
40 77 -1.0
44 77 -1.0
502 77 1.0
4 78 1.0
6 78 1.0
504 78 1.0
5 79 -1.0
7 79 1.0
507 79 1.0
6 80 -1.0
8 80 1.0
508 80 1.0
7 81 -1.0
45 81 0.75
47 81 -0.75
49 81 -1.0
509 81 1.0
7 82 -1.0
53 82 1.0
61 82 -1.0
511 82 1.0
7 83 -1.0
65 83 1.0
67 83 -1.0
73 83 -1.0
513 83 1.0
8 84 -1.0
46 84 0.75
48 84 -0.75
50 84 -1.0
510 84 1.0
8 85 -1.0
57 85 1.0
62 85 -1.0
512 85 1.0
8 86 -1.0
66 86 1.0
68 86 -1.0
74 86 -1.0
514 86 1.0
9 87 1.0
45 87 -1.0
47 87 1.0
51 87 -1.0
519 87 1.0
9 88 -1.0
79 88 1.0
87 88 -1.0
525 88 1.0
9 89 -1.0
91 89 1.0
99 89 -1.0
527 89 1.0
10 90 1.0
46 90 -1.0
48 90 1.0
52 90 -1.0
520 90 1.0
10 91 -1.0
83 91 1.0
88 91 -1.0
526 91 1.0
10 92 -1.0
95 92 1.0
100 92 -1.0
528 92 1.0
11 93 1.0
65 93 -1.0
67 93 1.0
69 93 -1.0
71 93 1.0
77 93 -1.0
523 93 1.0
11 94 -1.0
115 94 0.9
117 94 -0.9
119 94 -1.0
529 94 1.0
11 95 -1.0
123 95 0.6
125 95 -0.6
127 95 -1.0
531 95 1.0
11 96 -1.0
131 96 1.0
139 96 -1.0
533 96 1.0
12 97 1.0
66 97 -1.0
68 97 1.0
70 97 -1.0
72 97 1.0
78 97 -1.0
524 97 1.0
12 98 -1.0
116 98 0.9
118 98 -0.9
120 98 -1.0
530 98 1.0
12 99 -1.0
124 99 0.6
126 99 -0.6
128 99 -1.0
532 99 1.0
12 100 -1.0
135 100 1.0
140 100 -1.0
534 100 1.0
13 101 1.0
106 101 -1.0
113 101 -1.0
539 101 1.0
13 102 -1.0
169 102 1.0
177 102 -1.0
547 102 1.0
13 103 -1.0
181 103 1.0
197 103 -1.0
549 103 1.0
14 104 1.0
110 104 -1.0
114 104 -1.0
540 104 1.0
14 105 -1.0
173 105 1.0
178 105 -1.0
548 105 1.0
14 106 -1.0
185 106 1.0
198 106 -1.0
550 106 1.0
15 107 -1.0
115 107 -1.0
117 107 1.0
121 107 -1.0
541 107 1.0
15 108 1.0
189 108 1.0
199 108 -1.0
559 108 1.0
16 109 -1.0
116 109 -1.0
118 109 1.0
122 109 -1.0
542 109 1.0
16 110 1.0
193 110 1.0
200 110 -1.0
560 110 1.0
17 111 1.0
123 111 -1.0
125 111 1.0
129 111 -1.0
543 111 1.0
17 112 -1.0
203 112 1.0
205 112 -1.0
207 112 -1.0
561 112 1.0
17 113 -1.0
211 113 1.0
213 113 -1.0
215 113 -1.0
563 113 1.0
18 114 1.0
124 114 -1.0
126 114 1.0
130 114 -1.0
544 114 1.0
18 115 -1.0
204 115 1.0
206 115 -1.0
208 115 -1.0
562 115 1.0
18 116 -1.0
212 116 1.0
214 116 -1.0
216 116 -1.0
564 116 1.0
19 117 1.0
134 117 -1.0
141 117 -1.0
545 117 1.0
19 118 -1.0
219 118 1.0
227 118 -1.0
565 118 1.0
19 119 -1.0
231 119 1.0
239 119 -1.0
567 119 1.0
19 120 -1.0
243 120 1.0
251 120 -1.0
569 120 1.0
20 121 1.0
138 121 -1.0
142 121 -1.0
546 121 1.0
20 122 -1.0
223 122 1.0
228 122 -1.0
566 122 1.0
20 123 -1.0
235 123 1.0
240 123 -1.0
568 123 1.0
20 124 -1.0
247 124 1.0
252 124 -1.0
570 124 1.0
23 125 1.0
24 125 1.0
24 126 -1.0
29 126 40.0
31 126 3.71357206670431
335 126 -1.0
395 126 -1.0
396 126 1.0
435 126 1.0
455 126 1.0
457 126 1.0
459 126 1.0
589 126 1.0
590 126 -1.0
27 127 1.0
28 127 1.0
28 128 -1.0
30 128 40.0
32 128 3.71357206670431
335 128 1.0
396 128 -1.0
436 128 1.0
456 128 1.0
458 128 1.0
460 128 1.0
591 128 1.0
592 128 -1.0
35 129 1.0
36 129 1.2
36 130 -1.0
41 130 40.0
43 130 4.45628648004517
336 130 -1.0
397 130 -1.0
398 130 1.0
435 130 1.0
455 130 1.0
457 130 1.0
459 130 1.0
593 130 1.0
594 130 -1.0
39 131 1.0
40 131 1.2
40 132 -1.0
42 132 40.0
44 132 4.45628648004517
336 132 1.0
398 132 -1.0
436 132 1.0
456 132 1.0
458 132 1.0
460 132 1.0
595 132 1.0
596 132 -1.0
45 133 -1.0
47 133 -1.0
49 133 4.45628648004517
51 133 3.34221486003388
337 133 -1.0
399 133 -1.0
400 133 1.0
437 133 -1.0
455 133 -1.0
461 133 1.0
463 133 1.0
597 133 1.0
598 133 -1.0
46 134 -1.0
48 134 -1.0
50 134 4.45628648004517
52 134 3.34221486003388
337 134 1.0
400 134 -1.0
438 134 -1.0
456 134 -1.0
462 134 1.0
464 134 1.0
599 134 1.0
600 134 -1.0
55 135 1.0
56 135 1.5
56 136 -1.0
63 136 -1.0
103 136 1.0
111 136 -1.0
521 136 1.0
56 137 -1.0
61 137 4.45628648004517
63 137 2.54515263975353
338 137 -1.0
401 137 -1.0
402 137 1.0
443 137 -1.0
457 137 -1.0
465 137 1.0
601 137 1.0
602 137 -1.0
59 138 1.0
60 138 1.5
60 139 -1.0
64 139 -1.0
107 139 1.0
112 139 -1.0
522 139 1.0
60 140 -1.0
62 140 4.45628648004517
64 140 2.54515263975353
338 140 1.0
402 140 -1.0
444 140 -1.0
458 140 -1.0
466 140 1.0
603 140 1.0
604 140 -1.0
65 141 -1.0
67 141 -1.0
69 141 -1.0
71 141 -1.0
73 141 4.45628648004517
75 141 30.0
77 141 15.0
339 141 -1.0
403 141 -1.0
404 141 1.0
447 141 -1.0
459 141 -1.0
467 141 1.0
469 141 1.0
471 141 1.0
605 141 1.0
606 141 -1.0
66 142 -1.0
68 142 -1.0
70 142 -1.0
72 142 -1.0
74 142 4.45628648004517
76 142 30.0
78 142 15.0
339 142 1.0
404 142 -1.0
448 142 -1.0
460 142 -1.0
468 142 1.0
470 142 1.0
472 142 1.0
607 142 1.0
608 142 -1.0
81 143 1.0
82 143 1.25
82 144 -1.0
89 144 -1.0
143 144 0.9
145 144 -0.9
151 144 -1.0
535 144 1.0
82 145 -1.0
87 145 3.34221486003388
89 145 1.83548069293539
340 145 -1.0
405 145 -1.0
406 145 1.0
437 145 1.0
439 145 -1.0
461 145 -1.0
473 145 1.0
609 145 1.0
610 145 -1.0
85 146 1.0
86 146 1.25
86 147 -1.0
90 147 -1.0
144 147 0.9
146 147 -0.9
152 147 -1.0
536 147 1.0
86 148 -1.0
88 148 3.34221486003388
90 148 1.83548069293539
340 148 1.0
406 148 -1.0
438 148 1.0
440 148 -1.0
462 148 -1.0
474 148 1.0
611 148 1.0
612 148 -1.0
93 149 1.0
94 149 0.9
94 150 -1.0
101 150 -1.0
157 150 1.0
165 150 -1.0
537 150 1.0
94 151 -1.0
99 151 3.34221486003388
101 151 1.32154609891348
341 151 -1.0
407 151 -1.0
408 151 1.0
437 151 1.0
441 151 -1.0
463 151 -1.0
475 151 1.0
613 151 1.0
614 151 -1.0
97 152 1.0
98 152 0.9
98 153 -1.0
102 153 -1.0
161 153 1.0
166 153 -1.0
538 153 1.0
98 154 -1.0
100 154 3.34221486003388
102 154 1.32154609891348
341 154 1.0
408 154 -1.0
438 154 1.0
442 154 -1.0
464 154 -1.0
476 154 1.0
615 154 1.0
616 154 -1.0
105 155 1.0
106 155 1.0
106 156 -1.0
111 156 2.54515263975353
113 156 1.26558121681553
342 156 -1.0
409 156 -1.0
410 156 1.0
443 156 1.0
445 156 -1.0
465 156 -1.0
477 156 1.0
479 156 1.0
617 156 1.0
618 156 -1.0
109 157 1.0
110 157 1.0
110 158 -1.0
112 158 2.54515263975353
114 158 1.26558121681553
342 158 1.0
410 158 -1.0
444 158 1.0
446 158 -1.0
466 158 -1.0
478 158 1.0
480 158 1.0
619 158 1.0
620 158 -1.0
115 159 -1.0
117 159 -1.0
119 159 15.0
121 159 13.5
343 159 -1.0
411 159 -1.0
412 159 1.0
447 159 1.0
449 159 -1.0
467 159 -1.0
621 159 1.0
622 159 -1.0
116 160 -1.0
118 160 -1.0
120 160 15.0
122 160 13.5
343 160 1.0
412 160 -1.0
448 160 1.0
450 160 -1.0
468 160 -1.0
623 160 1.0
624 160 -1.0
123 161 -1.0
125 161 -1.0
127 161 15.0
129 161 9.0
344 161 -1.0
413 161 -1.0
414 161 1.0
447 161 1.0
451 161 -1.0
469 161 -1.0
481 161 1.0
483 161 1.0
625 161 1.0
626 161 -1.0
124 162 -1.0
126 162 -1.0
128 162 15.0
130 162 9.0
344 162 1.0
414 162 -1.0
448 162 1.0
452 162 -1.0
470 162 -1.0
482 162 1.0
484 162 1.0
627 162 1.0
628 162 -1.0
133 163 1.0
134 163 1.1
134 164 -1.0
139 164 15.0
141 164 3.04984759446376
345 164 -1.0
415 164 -1.0
416 164 1.0
447 164 1.0
453 164 -1.0
471 164 -1.0
485 164 1.0
487 164 1.0
489 164 1.0
629 164 1.0
630 164 -1.0
137 165 1.0
138 165 1.1
138 166 -1.0
140 166 15.0
142 166 3.04984759446376
345 166 1.0
416 166 -1.0
448 166 1.0
454 166 -1.0
472 166 -1.0
486 166 1.0
488 166 1.0
490 166 1.0
631 166 1.0
632 166 -1.0
143 167 -1.0
145 167 -1.0
147 167 -1.0
149 167 -1.0
151 167 1.83548069293539
153 167 20.0
155 167 20.0
346 167 -1.0
417 167 -1.0
418 167 1.0
439 167 1.0
473 167 -1.0
633 167 1.0
634 167 -1.0
144 168 -1.0
146 168 -1.0
148 168 -1.0
150 168 -1.0
152 168 1.83548069293539
154 168 20.0
156 168 20.0
346 168 1.0
418 168 -1.0
440 168 1.0
474 168 -1.0
635 168 1.0
636 168 -1.0
159 169 1.0
160 169 1.0
160 170 -1.0
165 170 1.32154609891348
167 170 0.842233385663186
347 170 -1.0
419 170 -1.0
420 170 1.0
441 170 1.0
475 170 -1.0
637 170 1.0
638 170 -1.0
163 171 1.0
164 171 1.0
164 172 -1.0
166 172 1.32154609891348
168 172 0.842233385663186
347 172 1.0
420 172 -1.0
442 172 1.0
476 172 -1.0
639 172 1.0
640 172 -1.0
171 173 1.0
172 173 0.7
172 174 -1.0
177 174 1.26558121681553
179 174 0.572481933717686
348 174 -1.0
421 174 -1.0
422 174 1.0
445 174 1.0
477 174 -1.0
641 174 1.0
642 174 -1.0
175 175 1.0
176 175 0.7
176 176 -1.0
178 176 1.26558121681553
180 176 0.572481933717686
348 176 1.0
422 176 -1.0
446 176 1.0
478 176 -1.0
643 176 1.0
644 176 -1.0
183 177 1.0
184 177 0.65
184 178 -1.0
192 178 -1.0
197 178 1.26558121681553
199 178 33.5
201 178 2.30162356062425
349 178 -1.0
423 178 -1.0
424 178 1.0
445 178 1.0
449 178 1.0
479 178 -1.0
645 178 1.0
646 178 -1.0
187 179 1.0
188 179 0.65
188 180 -1.0
196 180 -1.0
198 180 1.26558121681553
200 180 33.5
202 180 2.30162356062425
349 180 1.0
424 180 -1.0
446 180 1.0
450 180 1.0
480 180 -1.0
647 180 1.0
648 180 -1.0
191 181 1.0
192 181 0.65
195 182 1.0
196 182 0.65
203 183 -1.0
205 183 -1.0
207 183 9.0
209 183 9.0
350 183 -1.0
425 183 -1.0
426 183 1.0
451 183 1.0
481 183 -1.0
649 183 1.0
650 183 -1.0
204 184 -1.0
206 184 -1.0
208 184 9.0
210 184 9.0
350 184 1.0
426 184 -1.0
452 184 1.0
482 184 -1.0
651 184 1.0
652 184 -1.0
211 185 -1.0
213 185 -1.0
215 185 9.0
217 185 9.0
351 185 -1.0
427 185 -1.0
428 185 1.0
451 185 1.0
483 185 -1.0
653 185 1.0
654 185 -1.0
212 186 -1.0
214 186 -1.0
216 186 9.0
218 186 9.0
351 186 1.0
428 186 -1.0
452 186 1.0
484 186 -1.0
655 186 1.0
656 186 -1.0
221 187 1.0
222 187 0.75
222 188 -1.0
227 188 3.04984759446376
229 188 1.04900943706034
352 188 -1.0
429 188 -1.0
430 188 1.0
453 188 1.0
485 188 -1.0
657 188 1.0
658 188 -1.0
225 189 1.0
226 189 0.75
226 190 -1.0
228 190 3.04984759446376
230 190 1.04900943706034
352 190 1.0
430 190 -1.0
454 190 1.0
486 190 -1.0
659 190 1.0
660 190 -1.0
233 191 1.0
234 191 0.8
234 192 -1.0
239 192 3.04984759446376
241 192 1.11894339953103
353 192 -1.0
431 192 -1.0
432 192 1.0
453 192 1.0
487 192 -1.0
661 192 1.0
662 192 -1.0
237 193 1.0
238 193 0.8
238 194 -1.0
240 194 3.04984759446376
242 194 1.11894339953103
353 194 1.0
432 194 -1.0
454 194 1.0
488 194 -1.0
663 194 1.0
664 194 -1.0
245 195 1.0
246 195 0.85
246 196 -1.0
251 196 3.04984759446376
253 196 1.18887736200171
354 196 -1.0
433 196 -1.0
434 196 1.0
453 196 1.0
489 196 -1.0
665 196 1.0
666 196 -1.0
249 197 1.0
250 197 0.85
250 198 -1.0
252 198 3.04984759446376
254 198 1.18887736200171
354 198 1.0
434 198 -1.0
454 198 1.0
490 198 -1.0
667 198 1.0
668 198 -1.0
255 199 -1.0
295 199 1.0
256 200 -1.0
296 200 1.0
257 201 -1.0
297 201 1.0
258 202 -1.0
298 202 1.0
259 203 -1.0
299 203 1.0
260 204 -1.0
300 204 1.0
261 205 -1.0
301 205 1.0
262 206 -1.0
302 206 1.0
263 207 -1.0
303 207 1.0
264 208 -1.0
304 208 1.0
265 209 -1.0
305 209 1.0
266 210 -1.0
306 210 1.0
267 211 -1.0
307 211 1.0
268 212 -1.0
308 212 1.0
269 213 -1.0
309 213 1.0
270 214 -1.0
310 214 1.0
271 215 -1.0
311 215 1.0
272 216 -1.0
312 216 1.0
273 217 -1.0
313 217 1.0
274 218 -1.0
314 218 1.0
275 219 -1.0
315 219 1.0
276 220 -1.0
316 220 1.0
277 221 -1.0
317 221 1.0
278 222 -1.0
318 222 1.0
279 223 -1.0
319 223 1.0
280 224 -1.0
320 224 1.0
281 225 -1.0
321 225 1.0
282 226 -1.0
322 226 1.0
283 227 -1.0
323 227 1.0
284 228 -1.0
324 228 1.0
285 229 -1.0
325 229 1.0
286 230 -1.0
326 230 1.0
287 231 -1.0
327 231 1.0
288 232 -1.0
328 232 1.0
289 233 -1.0
329 233 1.0
290 234 -1.0
330 234 1.0
291 235 -1.0
331 235 1.0
292 236 -1.0
332 236 1.0
293 237 -1.0
333 237 1.0
294 238 -1.0
334 238 1.0

BCOORD
250
21 1.0
22 1.0
24 1.0
25 1.0
26 1.0
28 1.0
33 1.0
34 1.0
36 1.0
37 1.0
38 1.0
40 1.0
45 1.0
46 1.0
47 1.0
48 1.0
53 1.0
54 1.0
56 1.0
57 1.0
58 1.0
60 1.0
65 1.0
66 1.0
67 1.0
68 1.0
69 1.0
70 1.0
71 1.0
72 1.0
79 1.0
80 1.0
82 1.0
83 1.0
84 1.0
86 1.0
91 1.0
92 1.0
94 1.0
95 1.0
96 1.0
98 1.0
103 1.0
104 1.0
106 1.0
107 1.0
108 1.0
110 1.0
115 1.0
116 1.0
117 1.0
118 1.0
123 1.0
124 1.0
125 1.0
126 1.0
131 1.0
132 1.0
134 1.0
135 1.0
136 1.0
138 1.0
143 1.0
144 1.0
145 1.0
146 1.0
147 1.0
148 1.0
149 1.0
150 1.0
157 1.0
158 1.0
160 1.0
161 1.0
162 1.0
164 1.0
169 1.0
170 1.0
172 1.0
173 1.0
174 1.0
176 1.0
181 1.0
182 1.0
184 1.0
185 1.0
186 1.0
188 1.0
189 1.0
190 1.0
192 1.0
193 1.0
194 1.0
196 1.0
203 1.0
204 1.0
205 1.0
206 1.0
211 1.0
212 1.0
213 1.0
214 1.0
219 1.0
220 1.0
222 1.0
223 1.0
224 1.0
226 1.0
231 1.0
232 1.0
234 1.0
235 1.0
236 1.0
238 1.0
243 1.0
244 1.0
246 1.0
247 1.0
248 1.0
250 1.0
355 1.0
356 1.0
357 1.0
358 1.0
359 1.0
360 1.0
361 1.0
362 1.0
363 1.0
364 1.0
365 1.0
366 1.0
367 1.0
368 1.0
369 1.0
370 1.0
371 1.0
372 1.0
373 1.0
374 1.0
375 1.0
376 1.0
377 1.0
378 1.0
379 1.0
380 1.0
381 1.0
382 1.0
383 1.0
384 1.0
385 1.0
386 1.0
387 1.0
388 1.0
389 1.0
390 1.0
391 1.0
392 1.0
393 1.0
394 1.0
435 -1.0
436 -1.0
492 40.0
494 40.0
516 30.0
518 30.0
552 20.0
554 20.0
556 20.0
558 20.0
590 1.0
592 1.0
594 1.0
596 1.0
598 1.0
600 1.0
602 1.0
604 1.0
606 1.0
608 1.0
610 1.0
612 1.0
614 1.0
616 1.0
618 1.0
620 1.0
622 1.0
624 1.0
626 1.0
628 1.0
630 1.0
632 1.0
634 1.0
636 1.0
638 1.0
640 1.0
642 1.0
644 1.0
646 1.0
648 1.0
650 1.0
652 1.0
654 1.0
656 1.0
658 1.0
660 1.0
662 1.0
664 1.0
666 1.0
668 1.0
670 1.0
672 1.0
674 1.0
676 1.0
678 1.0
680 1.0
682 1.0
684 1.0
686 1.0
688 1.0
690 1.0
692 1.0
694 1.0
696 1.0
698 1.0
700 1.0
702 1.0
704 1.0
706 1.0
708 1.0
710 1.0
712 1.0
714 1.0
716 1.0
718 1.0
720 1.0
722 1.0
724 1.0
726 1.0
728 1.0
730 1.0
732 1.0
734 1.0
736 1.0
738 1.0
740 1.0
742 1.0
744 1.0
746 1.0
748 1.0
